solving instance mcf nodes c40 3 6 log
presolving:
(round 1, fast)       248 del vars, 248 del conss, 0 add conss, 20 chg bounds, 0 chg sides, 0 chg coeffs, 0 upgd conss, 0 impls, 0 clqs
(round 2, fast)       476 del vars, 248 del conss, 0 add conss, 20 chg bounds, 0 chg sides, 0 chg coeffs, 0 upgd conss, 0 impls, 0 clqs
(round 3, fast)       476 del vars, 248 del conss, 0 add conss, 20 chg bounds, 228 chg sides, 0 chg coeffs, 0 upgd conss, 0 impls, 0 clqs
   (0.4s) symmetry computation started: requiring (bin +, int +, cont +), (fixed: bin -, int -, cont -)
   (0.5s) no symmetry present (symcode time: 0.02)
presolving (4 rounds: 4 fast, 1 medium, 1 exhaustive):
 476 deleted vars, 248 deleted constraints, 0 added constraints, 20 tightened bounds, 0 added holes, 228 changed sides, 0 changed coefficients
 0 implications, 0 cliques
presolved problem has 45640 variables (0 bin, 0 int, 0 impl, 45640 cont) and 4268 constraints
   4248 constraints of type <linear>
     20 constraints of type <nonlinear>
Presolving Time: 0.42

 time | node  | left  |LP iter|LP it/n|mem/heur|mdpt |vars |cons |rows |cuts |sepa|confs|strbr|  dualbound   | primalbound  |  gap   | compl. 
 16.8s|     1 |     0 | 27403 |     - |   252M |   0 |  45k|4268 |4288 |   0 |  0 |   0 |   0 | 7.051426e+03 |      --      |    Inf | unknown
L52.0s|     1 |     0 | 27403 |     - |  subnlp|   0 |  45k|4268 |4288 |   0 |  0 |   0 |   0 | 7.051426e+03 | 1.424227e+04 | 101.98%| unknown
 52.1s|     1 |     0 | 27403 |     - |   255M |   0 |  45k|4268 |4288 |   0 |  1 |   0 |   0 | 7.051426e+03 | 1.424227e+04 | 101.98%| unknown
  114s|     1 |     2 | 27403 |     - |   258M |   0 |  45k|4268 |4288 |   0 |  2 |   0 |   0 | 7.051426e+03 | 1.424227e+04 | 101.98%| unknown
  178s|   100 |    99 | 54033 | 269.0 |   269M |  11 |  45k|4268 |4300 | 105 |  2 |   1 |   0 | 8.084399e+03 | 1.424227e+04 |  76.17%| unknown
  199s|   200 |   199 | 83563 | 282.2 |   271M |  11 |  45k|4268 |4298 | 216 |  2 |   1 |   0 | 8.651600e+03 | 1.424227e+04 |  64.62%| unknown
  223s|   300 |   299 |116107 | 296.7 |   271M |  12 |  45k|4268 |4299 | 320 |  2 |   1 |   0 | 8.762438e+03 | 1.424227e+04 |  62.54%| unknown
  243s|   400 |   399 |141863 | 286.9 |   272M |  13 |  45k|4268 |4298 | 422 |  2 |   1 |   0 | 8.932847e+03 | 1.424227e+04 |  59.44%| unknown
  266s|   500 |   499 |172350 | 290.5 |   273M |  13 |  45k|4268 |4297 | 525 |  2 |   1 |   0 | 9.056913e+03 | 1.424227e+04 |  57.25%| unknown
  335s|   600 |   599 |200163 | 288.4 |   273M |  14 |  45k|4268 |4296 | 625 |  2 |   1 |   0 | 9.138431e+03 | 1.424227e+04 |  55.85%| unknown
  354s|   700 |   699 |223248 | 280.2 |   274M |  15 |  45k|4268 |4296 | 727 |  2 |   1 |   0 | 9.185009e+03 | 1.424227e+04 |  55.06%| unknown
  374s|   800 |   799 |245819 | 273.4 |   276M |  15 |  45k|4268 |4298 | 828 |  2 |   1 |   0 | 9.264337e+03 | 1.424227e+04 |  53.73%| unknown
  395s|   900 |   899 |271601 | 271.6 |   277M |  15 |  45k|4268 |4300 | 929 |  2 |   1 |   0 | 9.264337e+03 | 1.424227e+04 |  53.73%| unknown
  416s|  1000 |   999 |298617 | 271.5 |   277M |  15 |  45k|4268 |4298 |1029 |  2 |   1 |   0 | 9.359080e+03 | 1.424227e+04 |  52.18%| unknown
  437s|  1100 |  1099 |325146 | 270.9 |   278M |  15 |  45k|4268 |4298 |1129 |  2 |   1 |   0 | 9.387661e+03 | 1.424227e+04 |  51.71%| unknown
 time | node  | left  |LP iter|LP it/n|mem/heur|mdpt |vars |cons |rows |cuts |sepa|confs|strbr|  dualbound   | primalbound  |  gap   | compl. 
  462s|  1200 |  1198 |357182 | 275.0 |   279M |  15 |  45k|4268 |4301 |1229 |  2 |   1 |   0 | 9.391493e+03 | 1.424227e+04 |  51.65%| unknown
  483s|  1300 |  1298 |384681 | 275.0 |   279M |  15 |  45k|4268 |4300 |1329 |  2 |   1 |   0 | 9.464415e+03 | 1.424227e+04 |  50.48%| unknown
  504s|  1400 |  1398 |409979 | 273.5 |   281M |  15 |  45k|4268 |4303 |1429 |  2 |   1 |   0 | 9.469986e+03 | 1.424227e+04 |  50.39%| unknown
  526s|  1500 |  1498 |435573 | 272.3 |   282M |  15 |  45k|4268 |4299 |1529 |  2 |   1 |   0 | 9.506335e+03 | 1.424227e+04 |  49.82%| unknown
  546s|  1600 |  1598 |460599 | 270.9 |   282M |  16 |  45k|4268 |4301 |1630 |  2 |   1 |   0 | 9.537929e+03 | 1.424227e+04 |  49.32%| unknown
  643s|  1700 |  1698 |486287 | 270.1 |   285M |  16 |  45k|4268 |4299 |1730 |  2 |   1 |   0 | 9.560801e+03 | 1.424227e+04 |  48.97%| unknown
  664s|  1800 |  1798 |513172 | 270.0 |   286M |  16 |  45k|4268 |4300 |1830 |  2 |   1 |   0 | 9.570574e+03 | 1.424227e+04 |  48.81%| unknown
  684s|  1900 |  1898 |538994 | 269.4 |   287M |  16 |  45k|4268 |4301 |1930 |  2 |   1 |   0 | 9.605097e+03 | 1.424227e+04 |  48.28%| unknown
  704s|  2000 |  1998 |562089 | 267.5 |   288M |  16 |  45k|4268 |4300 |2030 |  2 |   1 |   0 | 9.650501e+03 | 1.424227e+04 |  47.58%| unknown
  724s|  2100 |  2098 |590363 | 268.2 |   289M |  16 |  45k|4268 |4298 |2131 |  2 |   1 |   0 | 9.662190e+03 | 1.424227e+04 |  47.40%| unknown
  745s|  2200 |  2198 |616164 | 267.7 |   289M |  16 |  45k|4268 |4299 |2231 |  2 |   1 |   0 | 9.662190e+03 | 1.424227e+04 |  47.40%| unknown
  765s|  2300 |  2298 |644771 | 268.5 |   290M |  16 |  45k|4268 |4298 |2331 |  2 |   1 |   0 | 9.699157e+03 | 1.424227e+04 |  46.84%| unknown
  786s|  2400 |  2398 |670493 | 268.1 |   291M |  16 |  45k|4268 |4298 |2432 |  2 |   1 |   0 | 9.719354e+03 | 1.424227e+04 |  46.54%| unknown
  806s|  2500 |  2498 |697311 | 268.1 |   291M |  16 |  45k|4268 |4300 |2532 |  2 |   1 |   0 | 9.729295e+03 | 1.424227e+04 |  46.39%| unknown
  824s|  2600 |  2598 |717408 | 265.5 |   292M |  16 |  45k|4268 |4302 |2632 |  2 |   1 |   0 | 9.729295e+03 | 1.424227e+04 |  46.39%| unknown
 time | node  | left  |LP iter|LP it/n|mem/heur|mdpt |vars |cons |rows |cuts |sepa|confs|strbr|  dualbound   | primalbound  |  gap   | compl. 
  845s|  2700 |  2698 |744648 | 265.7 |   294M |  16 |  45k|4268 |4301 |2732 |  2 |   1 |   0 | 9.776854e+03 | 1.424227e+04 |  45.67%| unknown
  864s|  2800 |  2798 |767475 | 264.4 |   294M |  16 |  45k|4268 |4301 |2832 |  2 |   1 |   0 | 9.781664e+03 | 1.424227e+04 |  45.60%| unknown
  886s|  2900 |  2898 |795647 | 265.0 |   295M |  16 |  45k|4268 |4298 |2932 |  2 |   1 |   0 | 9.809011e+03 | 1.424227e+04 |  45.20%| unknown
  906s|  3000 |  2998 |821698 | 264.9 |   296M |  17 |  45k|4268 |4306 |3032 |  2 |   1 |   0 | 9.860044e+03 | 1.424227e+04 |  44.44%| unknown
  924s|  3100 |  3098 |844670 | 263.7 |   296M |  18 |  45k|4268 |4300 |3132 |  2 |   1 |   0 | 9.867605e+03 | 1.424227e+04 |  44.33%| unknown
  945s|  3200 |  3198 |872943 | 264.3 |   298M |  18 |  45k|4268 |4302 |3232 |  2 |   1 |   0 | 9.867605e+03 | 1.424227e+04 |  44.33%| unknown
  964s|  3300 |  3298 |896472 | 263.4 |   299M |  18 |  45k|4268 |4299 |3332 |  2 |   1 |   0 | 9.877306e+03 | 1.424227e+04 |  44.19%| unknown
  983s|  3400 |  3398 |921594 | 263.1 |   299M |  18 |  45k|4268 |4303 |3432 |  2 |   1 |   0 | 9.880488e+03 | 1.424227e+04 |  44.15%| unknown
 1002s|  3500 |  3498 |948562 | 263.3 |   300M |  18 |  45k|4268 |4300 |3532 |  2 |   1 |   0 | 9.888118e+03 | 1.424227e+04 |  44.03%| unknown
 1020s|  3600 |  3598 |970195 | 262.0 |   301M |  18 |  45k|4268 |4301 |3632 |  2 |   1 |   0 | 9.888118e+03 | 1.424227e+04 |  44.03%| unknown
 1114s|  3700 |  3698 |999506 | 262.8 |   301M |  18 |  45k|4268 |4301 |3732 |  2 |   1 |   0 | 9.923249e+03 | 1.424227e+04 |  43.52%| unknown
 1132s|  3800 |  3798 |  1023k| 262.1 |   303M |  18 |  45k|4268 |4301 |3832 |  2 |   1 |   0 | 9.931906e+03 | 1.424227e+04 |  43.40%| unknown
 1159s|  3900 |  3898 |  1055k| 263.8 |   304M |  18 |  45k|4268 |4299 |3932 |  2 |   1 |   0 | 9.939015e+03 | 1.424227e+04 |  43.30%| unknown
 1181s|  4000 |  3998 |  1085k| 264.7 |   304M |  18 |  45k|4268 |4300 |4032 |  2 |   1 |   0 | 9.939015e+03 | 1.424227e+04 |  43.30%| unknown
 1199s|  4100 |  4098 |  1109k| 263.9 |   305M |  18 |  45k|4268 |4301 |4132 |  2 |   1 |   0 | 9.957207e+03 | 1.424227e+04 |  43.03%| unknown
 time | node  | left  |LP iter|LP it/n|mem/heur|mdpt |vars |cons |rows |cuts |sepa|confs|strbr|  dualbound   | primalbound  |  gap   | compl. 
 1218s|  4200 |  4198 |  1135k| 263.9 |   306M |  18 |  45k|4268 |4302 |4232 |  2 |   1 |   0 | 9.957805e+03 | 1.424227e+04 |  43.03%| unknown
 1239s|  4300 |  4298 |  1162k| 264.1 |   306M |  18 |  45k|4268 |4299 |4332 |  2 |   1 |   0 | 1.000662e+04 | 1.424227e+04 |  42.33%| unknown
 1259s|  4400 |  4398 |  1190k| 264.4 |   308M |  18 |  45k|4268 |4300 |4432 |  2 |   1 |   0 | 1.000996e+04 | 1.424227e+04 |  42.28%| unknown
 1280s|  4500 |  4496 |  1218k| 264.7 |   309M |  18 |  45k|4268 |4302 |4538 |  2 |   2 |   0 | 1.002138e+04 | 1.424227e+04 |  42.12%| unknown
 1300s|  4600 |  4596 |  1244k| 264.6 |   309M |  18 |  45k|4268 |4302 |4655 |  2 |   2 |   0 | 1.002138e+04 | 1.424227e+04 |  42.12%| unknown
 1318s|  4700 |  4696 |  1267k| 263.9 |   310M |  18 |  45k|4268 |4299 |4771 |  2 |   2 |   0 | 1.003005e+04 | 1.424227e+04 |  42.00%| unknown
 1339s|  4800 |  4796 |  1296k| 264.4 |   311M |  18 |  45k|4268 |4300 |4887 |  2 |   2 |   0 | 1.004025e+04 | 1.424227e+04 |  41.85%| unknown
 1357s|  4900 |  4896 |  1319k| 263.8 |   312M |  18 |  45k|4268 |4302 |5003 |  2 |   2 |   0 | 1.005021e+04 | 1.424227e+04 |  41.71%| unknown
 1379s|  5000 |  4996 |  1347k| 264.1 |   313M |  18 |  45k|4268 |4301 |5118 |  2 |   2 |   0 | 1.006974e+04 | 1.424227e+04 |  41.44%| unknown
 1398s|  5100 |  5096 |  1372k| 263.8 |   314M |  18 |  45k|4268 |4299 |5235 |  2 |   2 |   0 | 1.007795e+04 | 1.424227e+04 |  41.32%| unknown
 1418s|  5200 |  5196 |  1401k| 264.2 |   316M |  18 |  45k|4268 |4301 |5346 |  2 |   2 |   0 | 1.009984e+04 | 1.424227e+04 |  41.01%| unknown
 1442s|  5300 |  5296 |  1433k| 265.3 |   317M |  18 |  45k|4268 |4305 |5461 |  2 |   2 |   0 | 1.011475e+04 | 1.424227e+04 |  40.81%| unknown
 1459s|  5400 |  5396 |  1456k| 264.7 |   318M |  18 |  45k|4268 |4300 |5574 |  1 |   2 |   0 | 1.013137e+04 | 1.424227e+04 |  40.58%| unknown
 1479s|  5500 |  5496 |  1483k| 264.7 |   319M |  18 |  45k|4268 |4298 |5688 |  2 |   2 |   0 | 1.013137e+04 | 1.424227e+04 |  40.58%| unknown
 1496s|  5600 |  5596 |  1505k| 264.0 |   320M |  18 |  45k|4268 |4305 |5799 |  2 |   2 |   0 | 1.013389e+04 | 1.424227e+04 |  40.54%| unknown
 time | node  | left  |LP iter|LP it/n|mem/heur|mdpt |vars |cons |rows |cuts |sepa|confs|strbr|  dualbound   | primalbound  |  gap   | compl. 
 1513s|  5700 |  5696 |  1528k| 263.3 |   320M |  18 |  45k|4268 |4303 |5914 |  2 |   2 |   0 | 1.014483e+04 | 1.424227e+04 |  40.39%| unknown
 1532s|  5800 |  5796 |  1553k| 263.2 |   321M |  18 |  45k|4268 |4299 |6028 |  2 |   2 |   0 | 1.015079e+04 | 1.424227e+04 |  40.31%| unknown
 1554s|  5900 |  5896 |  1586k| 264.3 |   321M |  18 |  45k|4268 |4305 |6145 |  2 |   2 |   0 | 1.017017e+04 | 1.424227e+04 |  40.04%| unknown
 1575s|  6000 |  5996 |  1615k| 264.7 |   323M |  18 |  45k|4268 |4304 |6259 |  2 |   2 |   0 | 1.017036e+04 | 1.424227e+04 |  40.04%| unknown
 1703s|  6100 |  6096 |  1642k| 264.9 |   324M |  19 |  45k|4268 |4305 |6372 |  2 |   2 |   0 | 1.017861e+04 | 1.424227e+04 |  39.92%| unknown
 1723s|  6200 |  6196 |  1670k| 265.0 |   324M |  19 |  45k|4268 |4303 |6491 |  2 |   2 |   0 | 1.018998e+04 | 1.424227e+04 |  39.77%| unknown
 1744s|  6300 |  6296 |  1698k| 265.4 |   325M |  19 |  45k|4268 |4304 |6604 |  2 |   2 |   0 | 1.019294e+04 | 1.424227e+04 |  39.73%| unknown
 1763s|  6400 |  6396 |  1726k| 265.6 |   326M |  19 |  45k|4268 |4302 |6713 |  2 |   2 |   0 | 1.020904e+04 | 1.424227e+04 |  39.51%| unknown
 1782s|  6500 |  6496 |  1751k| 265.2 |   326M |  19 |  45k|4268 |4304 |6826 |  2 |   2 |   0 | 1.022629e+04 | 1.424227e+04 |  39.27%| unknown
 1805s|  6600 |  6596 |  1782k| 266.0 |   328M |  19 |  45k|4268 |4306 |6940 |  2 |   2 |   0 | 1.022972e+04 | 1.424227e+04 |  39.22%| unknown
 1824s|  6700 |  6696 |  1808k| 265.9 |   328M |  19 |  45k|4268 |4302 |7058 |  2 |   2 |   0 | 1.023776e+04 | 1.424227e+04 |  39.12%| unknown
 1844s|  6800 |  6796 |  1834k| 265.7 |   330M |  19 |  45k|4268 |4305 |7172 |  2 |   2 |   0 | 1.024866e+04 | 1.424227e+04 |  38.97%| unknown
 1863s|  6900 |  6896 |  1859k| 265.5 |   331M |  19 |  45k|4268 |4304 |7289 |  2 |   2 |   0 | 1.025455e+04 | 1.424227e+04 |  38.89%| unknown
 1884s|  7000 |  6996 |  1888k| 265.9 |   331M |  19 |  45k|4268 |4301 |7403 |  2 |   2 |   0 | 1.026931e+04 | 1.424227e+04 |  38.69%| unknown
 1906s|  7100 |  7096 |  1916k| 266.2 |   332M |  19 |  45k|4268 |4304 |7516 |  2 |   2 |   0 | 1.028438e+04 | 1.424227e+04 |  38.48%| unknown
 time | node  | left  |LP iter|LP it/n|mem/heur|mdpt |vars |cons |rows |cuts |sepa|confs|strbr|  dualbound   | primalbound  |  gap   | compl. 
 1926s|  7200 |  7196 |  1946k| 266.6 |   333M |  19 |  45k|4268 |4300 |7630 |  2 |   2 |   0 | 1.029666e+04 | 1.424227e+04 |  38.32%| unknown
 1946s|  7300 |  7296 |  1974k| 266.7 |   333M |  19 |  45k|4268 |4302 |7740 |  2 |   2 |   0 | 1.029666e+04 | 1.424227e+04 |  38.32%| unknown
 1968s|  7400 |  7396 |  2004k| 267.2 |   334M |  19 |  45k|4268 |4299 |7852 |  2 |   2 |   0 | 1.030430e+04 | 1.424227e+04 |  38.22%| unknown
 1989s|  7500 |  7496 |  2033k| 267.5 |   334M |  19 |  45k|4268 |4302 |7966 |  2 |   2 |   0 | 1.031324e+04 | 1.424227e+04 |  38.10%| unknown
 2011s|  7600 |  7596 |  2062k| 267.9 |   335M |  19 |  45k|4268 |4300 |8080 |  2 |   2 |   0 | 1.031959e+04 | 1.424227e+04 |  38.01%| unknown
 2031s|  7700 |  7696 |  2089k| 267.8 |   337M |  19 |  45k|4268 |4306 |8195 |  2 |   2 |   0 | 1.033014e+04 | 1.424227e+04 |  37.87%| unknown
 2050s|  7800 |  7796 |  2114k| 267.6 |   337M |  19 |  45k|4268 |4301 |8303 |  2 |   2 |   0 | 1.033014e+04 | 1.424227e+04 |  37.87%| unknown
 2078s|  7900 |  7896 |  2152k| 269.0 |   338M |  19 |  45k|4268 |4301 |8419 |  2 |   2 |   0 | 1.033014e+04 | 1.424227e+04 |  37.87%| unknown
 2099s|  8000 |  7996 |  2179k| 269.1 |   339M |  19 |  45k|4268 |4305 |8530 |  2 |   2 |   0 | 1.035794e+04 | 1.424227e+04 |  37.50%| unknown
 2125s|  8100 |  8096 |  2214k| 270.1 |   340M |  19 |  45k|4268 |4300 |8643 |  2 |   2 |   0 | 1.036899e+04 | 1.424227e+04 |  37.35%| unknown
 2145s|  8200 |  8196 |  2241k| 270.0 |   341M |  19 |  45k|4268 |4304 |8753 |  2 |   2 |   0 | 1.036899e+04 | 1.424227e+04 |  37.35%| unknown
 2165s|  8300 |  8296 |  2268k| 270.0 |   342M |  19 |  45k|4268 |4304 |8863 |  2 |   2 |   0 | 1.038207e+04 | 1.424227e+04 |  37.18%| unknown
 2190s|  8400 |  8396 |  2306k| 271.3 |   344M |  19 |  45k|4268 |4305 |8974 |  2 |   2 |   0 | 1.040417e+04 | 1.424227e+04 |  36.89%| unknown
 2210s|  8500 |  8496 |  2332k| 271.2 |   345M |  19 |  45k|4268 |4302 |9086 |  2 |   2 |   0 | 1.040897e+04 | 1.424227e+04 |  36.83%| unknown
 2229s|  8600 |  8596 |  2358k| 271.1 |   345M |  19 |  45k|4268 |4302 |9198 |  2 |   2 |   0 | 1.040897e+04 | 1.424227e+04 |  36.83%| unknown
 time | node  | left  |LP iter|LP it/n|mem/heur|mdpt |vars |cons |rows |cuts |sepa|confs|strbr|  dualbound   | primalbound  |  gap   | compl. 
 2253s|  8700 |  8696 |  2392k| 271.9 |   346M |  19 |  45k|4268 |4305 |9306 |  2 |   2 |   0 | 1.041121e+04 | 1.424227e+04 |  36.80%| unknown
 2275s|  8800 |  8796 |  2423k| 272.3 |   347M |  19 |  45k|4268 |4305 |9414 |  2 |   2 |   0 | 1.042323e+04 | 1.424227e+04 |  36.64%| unknown
 2296s|  8900 |  8896 |  2451k| 272.4 |   347M |  19 |  45k|4268 |4303 |9524 |  2 |   2 |   0 | 1.042688e+04 | 1.424227e+04 |  36.59%| unknown
 2317s|  9000 |  8996 |  2480k| 272.6 |   348M |  19 |  45k|4268 |4298 |9636 |  2 |   2 |   0 | 1.044751e+04 | 1.424227e+04 |  36.32%| unknown
d2385s|  9080 |  9076 |  2504k| 272.8 |linesear|  19 |  45k|4268 |4302 |9721 |  2 |   2 |   0 | 1.045294e+04 | 1.422449e+04 |  36.08%| unknown
 2470s|  9100 |  9096 |  2511k| 273.0 |   350M |  19 |  45k|4268 |4304 |9744 |  2 |   2 |   0 | 1.045551e+04 | 1.422449e+04 |  36.05%| unknown
 2489s|  9200 |  9196 |  2537k| 272.8 |   350M |  19 |  45k|4268 |4305 |9857 |  2 |   2 |   0 | 1.045837e+04 | 1.422449e+04 |  36.01%| unknown
 2508s|  9300 |  9296 |  2559k| 272.3 |   351M |  19 |  45k|4268 |4305 |9965 |  2 |   2 |   0 | 1.045837e+04 | 1.422449e+04 |  36.01%| unknown
 2532s|  9400 |  9396 |  2593k| 273.0 |   352M |  19 |  45k|4268 |4304 |  10k|  2 |   2 |   0 | 1.046317e+04 | 1.422449e+04 |  35.95%| unknown
 2554s|  9500 |  9496 |  2621k| 273.1 |   353M |  19 |  45k|4268 |4307 |  10k|  2 |   2 |   0 | 1.046317e+04 | 1.422449e+04 |  35.95%| unknown
 2574s|  9600 |  9596 |  2648k| 273.1 |   354M |  19 |  45k|4268 |4307 |  10k|  2 |   2 |   0 | 1.047563e+04 | 1.422449e+04 |  35.79%| unknown
 2594s|  9700 |  9696 |  2674k| 272.9 |   356M |  19 |  45k|4268 |4304 |  10k|  2 |   2 |   0 | 1.048658e+04 | 1.422449e+04 |  35.64%| unknown
 2615s|  9800 |  9796 |  2704k| 273.2 |   356M |  19 |  45k|4268 |4303 |  10k|  2 |   2 |   0 | 1.049884e+04 | 1.422449e+04 |  35.49%| unknown
 2633s|  9900 |  9896 |  2727k| 272.8 |   358M |  19 |  45k|4268 |4304 |  10k|  2 |   2 |   0 | 1.049884e+04 | 1.422449e+04 |  35.49%| unknown
 2653s| 10000 |  9996 |  2755k| 272.8 |   358M |  19 |  45k|4268 |4303 |  10k|  2 |   2 |   0 | 1.050248e+04 | 1.422449e+04 |  35.44%| unknown
 time | node  | left  |LP iter|LP it/n|mem/heur|mdpt |vars |cons |rows |cuts |sepa|confs|strbr|  dualbound   | primalbound  |  gap   | compl. 
 2678s| 10100 | 10094 |  2790k| 273.6 |   359M |  19 |  45k|4268 |4302 |  10k|  2 |   3 |   0 | 1.050653e+04 | 1.422449e+04 |  35.39%| unknown
 2703s| 10200 | 10194 |  2825k| 274.4 |   360M |  19 |  45k|4268 |4300 |  10k|  2 |   3 |   0 | 1.051940e+04 | 1.422449e+04 |  35.22%| unknown
 2728s| 10300 | 10294 |  2862k| 275.3 |   360M |  19 |  45k|4268 |4304 |  11k|  2 |   3 |   0 | 1.053242e+04 | 1.422449e+04 |  35.05%| unknown
 2757s| 10400 | 10394 |  2901k| 276.4 |   361M |  19 |  45k|4268 |4306 |  11k|  2 |   3 |   0 | 1.053334e+04 | 1.422449e+04 |  35.04%| unknown
 2777s| 10500 | 10494 |  2930k| 276.5 |   362M |  19 |  45k|4268 |4306 |  11k|  2 |   3 |   0 | 1.054346e+04 | 1.422449e+04 |  34.91%| unknown
 2800s| 10600 | 10594 |  2963k| 277.0 |   363M |  19 |  45k|4268 |4305 |  11k|  2 |   3 |   0 | 1.055725e+04 | 1.422449e+04 |  34.74%| unknown
 2925s| 10700 | 10694 |  2996k| 277.5 |   364M |  19 |  45k|4268 |4304 |  11k|  2 |   3 |   0 | 1.056330e+04 | 1.422449e+04 |  34.66%| unknown
 2948s| 10800 | 10794 |  3031k| 278.2 |   364M |  19 |  45k|4268 |4306 |  11k|  2 |   3 |   0 | 1.057631e+04 | 1.422449e+04 |  34.49%| unknown
 2971s| 10900 | 10894 |  3067k| 278.9 |   365M |  19 |  45k|4268 |4305 |  11k|  2 |   3 |   0 | 1.057950e+04 | 1.422449e+04 |  34.45%| unknown
 2991s| 11000 | 10994 |  3095k| 278.9 |   367M |  19 |  45k|4268 |4301 |  11k|  2 |   3 |   0 | 1.058609e+04 | 1.422449e+04 |  34.37%| unknown
 3013s| 11100 | 11094 |  3125k| 279.1 |   367M |  19 |  45k|4268 |4307 |  12k|  2 |   3 |   0 | 1.058657e+04 | 1.422449e+04 |  34.36%| unknown
 3036s| 11200 | 11194 |  3159k| 279.7 |   368M |  19 |  45k|4268 |4305 |  12k|  2 |   3 |   0 | 1.058657e+04 | 1.422449e+04 |  34.36%| unknown
 3068s| 11300 | 11294 |  3199k| 280.7 |   368M |  19 |  45k|4268 |4305 |  12k|  2 |   3 |   0 | 1.059185e+04 | 1.422449e+04 |  34.30%| unknown
 3088s| 11400 | 11394 |  3227k| 280.8 |   369M |  19 |  45k|4268 |4306 |  12k|  2 |   3 |   0 | 1.059832e+04 | 1.422449e+04 |  34.21%| unknown
 3118s| 11500 | 11494 |  3264k| 281.6 |   371M |  19 |  45k|4268 |4306 |  12k|  2 |   3 |   0 | 1.062002e+04 | 1.422449e+04 |  33.94%| unknown
 time | node  | left  |LP iter|LP it/n|mem/heur|mdpt |vars |cons |rows |cuts |sepa|confs|strbr|  dualbound   | primalbound  |  gap   | compl. 
 3148s| 11600 | 11594 |  3306k| 282.7 |   371M |  19 |  45k|4268 |4304 |  12k|  2 |   3 |   0 | 1.062482e+04 | 1.422449e+04 |  33.88%| unknown
 3172s| 11700 | 11694 |  3341k| 283.3 |   373M |  19 |  45k|4268 |4307 |  12k|  2 |   3 |   0 | 1.062637e+04 | 1.422449e+04 |  33.86%| unknown
 3192s| 11800 | 11794 |  3368k| 283.2 |   374M |  19 |  45k|4268 |4303 |  13k|  2 |   3 |   0 | 1.063059e+04 | 1.422449e+04 |  33.81%| unknown
 3213s| 11900 | 11894 |  3398k| 283.3 |   375M |  19 |  45k|4268 |4302 |  13k|  2 |   3 |   0 | 1.063390e+04 | 1.422449e+04 |  33.77%| unknown
 3239s| 12000 | 11994 |  3434k| 283.9 |   376M |  19 |  45k|4268 |4303 |  13k|  2 |   3 |   0 | 1.063955e+04 | 1.422449e+04 |  33.69%| unknown
 3261s| 12100 | 12094 |  3465k| 284.2 |   376M |  19 |  45k|4268 |4305 |  13k|  2 |   3 |   0 | 1.064737e+04 | 1.422449e+04 |  33.60%| unknown
 3284s| 12200 | 12194 |  3498k| 284.5 |   377M |  19 |  45k|4268 |4304 |  13k|  2 |   3 |   0 | 1.065036e+04 | 1.422449e+04 |  33.56%| unknown
 3307s| 12300 | 12294 |  3532k| 285.0 |   379M |  19 |  45k|4268 |4304 |  13k|  2 |   3 |   0 | 1.065652e+04 | 1.422449e+04 |  33.48%| unknown
 3339s| 12400 | 12394 |  3576k| 286.3 |   379M |  19 |  45k|4268 |4306 |  13k|  2 |   3 |   0 | 1.066222e+04 | 1.422449e+04 |  33.41%| unknown
 3360s| 12500 | 12494 |  3606k| 286.4 |   380M |  19 |  45k|4268 |4305 |  13k|  2 |   3 |   0 | 1.066225e+04 | 1.422449e+04 |  33.41%| unknown
 3386s| 12600 | 12594 |  3641k| 286.8 |   380M |  19 |  45k|4268 |4307 |  14k|  2 |   3 |   0 | 1.066653e+04 | 1.422449e+04 |  33.36%| unknown
 3412s| 12700 | 12694 |  3674k| 287.2 |   381M |  19 |  45k|4268 |4304 |  14k|  2 |   3 |   0 | 1.067422e+04 | 1.422449e+04 |  33.26%| unknown
 3435s| 12800 | 12794 |  3706k| 287.4 |   382M |  19 |  45k|4268 |4307 |  14k|  2 |   3 |   0 | 1.068885e+04 | 1.422449e+04 |  33.08%| unknown
 3458s| 12900 | 12894 |  3739k| 287.8 |   382M |  19 |  45k|4268 |4302 |  14k|  2 |   3 |   0 | 1.069041e+04 | 1.422449e+04 |  33.06%| unknown
 3479s| 13000 | 12994 |  3769k| 287.9 |   383M |  19 |  45k|4268 |4303 |  14k|  2 |   3 |   0 | 1.069124e+04 | 1.422449e+04 |  33.05%| unknown
 time | node  | left  |LP iter|LP it/n|mem/heur|mdpt |vars |cons |rows |cuts |sepa|confs|strbr|  dualbound   | primalbound  |  gap   | compl. 
 3499s| 13100 | 13094 |  3797k| 287.8 |   385M |  19 |  45k|4268 |4302 |  14k|  2 |   3 |   0 | 1.069306e+04 | 1.422449e+04 |  33.03%| unknown
 3521s| 13200 | 13194 |  3826k| 287.8 |   385M |  19 |  45k|4268 |4303 |  14k|  2 |   3 |   0 | 1.069642e+04 | 1.422449e+04 |  32.98%| unknown
 3542s| 13300 | 13294 |  3855k| 287.8 |   386M |  19 |  45k|4268 |4305 |  14k|  2 |   3 |   0 | 1.069976e+04 | 1.422449e+04 |  32.94%| unknown
 3570s| 13400 | 13394 |  3897k| 288.8 |   388M |  19 |  45k|4268 |4302 |  15k|  2 |   3 |   0 | 1.070636e+04 | 1.422449e+04 |  32.86%| unknown
 3595s| 13500 | 13494 |  3934k| 289.5 |   389M |  19 |  45k|4268 |4304 |  15k|  2 |   3 |   0 | 1.071488e+04 | 1.422449e+04 |  32.75%| unknown

SCIP Status        : solving was interrupted [time limit reached]
Solving Time (sec) : 3600.01
Solving Nodes      : 13526
Primal Bound       : +1.42244868312068e+04 (3 solutions)
Dual Bound         : +1.07159663743447e+04
Gap                : 32.74 %
solution violates original bounds of variable <w[3]> [0,365] solution value <-1.99847e-06>
best solution is not feasible in original problem
primal_bound = 14224.486831206814, dual_bound = 10715.966374344736, gap = 24.66535698964412, time = 3602.52
